; DUP1 DUP3 ADD DUP4 SWAP1 => DUP3 DUP2 DUP4 ADD
(set-option :produce-proofs true)
; 
(set-info :status unknown)
(declare-fun storage_t ((_ BitVec 256) (_ BitVec 256) (_ BitVec 256) Int (_ BitVec 256)) (_ BitVec 256))
(declare-fun storage_s ((_ BitVec 256) (_ BitVec 256) (_ BitVec 256) Int (_ BitVec 256)) (_ BitVec 256))
(declare-fun exc_halt_t (Int) Bool)
(declare-fun exc_halt_s (Int) Bool)
(declare-fun sc_t (Int) (_ BitVec 6))
(declare-fun stack_t ((_ BitVec 256) (_ BitVec 256) (_ BitVec 256) Int (_ BitVec 6)) (_ BitVec 256))
(declare-fun stack_s ((_ BitVec 256) (_ BitVec 256) (_ BitVec 256) Int (_ BitVec 6)) (_ BitVec 256))
(declare-fun sc_s (Int) (_ BitVec 6))
(declare-fun used_gas_t ((_ BitVec 256) (_ BitVec 256) (_ BitVec 256) Int) Int)
(declare-fun used_gas_s ((_ BitVec 256) (_ BitVec 256) (_ BitVec 256) Int) Int)
(assert
 (exists ((x_0 (_ BitVec 256)) (x_1 (_ BitVec 256)) (x_2 (_ BitVec 256)) )(let (($x8179 (forall ((w (_ BitVec 256)) )(let ((?x6850 (storage_t x_0 x_1 x_2 4 w)))
 (let ((?x8139 (storage_s x_0 x_1 x_2 5 w)))
 (= ?x8139 ?x6850))))
 ))
 (let (($x3723 (exc_halt_t 4)))
 (let (($x11317 (exc_halt_s 5)))
 (let (($x7362 (= $x11317 $x3723)))
 (let (($x10343 (forall ((n (_ BitVec 6)) )(let ((?x11072 (stack_t x_0 x_1 x_2 4 n)))
 (let ((?x10045 (stack_s x_0 x_1 x_2 5 n)))
 (let (($x3582 (= ?x10045 ?x11072)))
 (or $x3582 (bvsle (sc_t 4) n))))))
 ))
 (let ((?x1098 (sc_t 4)))
 (let ((?x4319 (sc_s 5)))
 (let (($x11451 (= ?x4319 ?x1098)))
 (let ((?x3007 (used_gas_t x_0 x_1 x_2 0)))
 (let ((?x5472 (used_gas_s x_0 x_1 x_2 0)))
 (let (($x846 (= ?x5472 ?x3007)))
 (let (($x6975 (forall ((w (_ BitVec 256)) )(let ((?x9279 (storage_t x_0 x_1 x_2 0 w)))
 (let ((?x5100 (storage_s x_0 x_1 x_2 0 w)))
 (= ?x5100 ?x9279))))
 ))
 (let (($x56 (exc_halt_t 0)))
 (let (($x57 (exc_halt_s 0)))
 (let (($x58 (= $x57 $x56)))
 (let (($x1355 (forall ((n (_ BitVec 6)) )(let ((?x63 (sc_t 0)))
 (let (($x7453 (bvsle ?x63 n)))
 (let ((?x8726 (stack_t x_0 x_1 x_2 0 n)))
 (let ((?x5085 (stack_s x_0 x_1 x_2 0 n)))
 (let (($x4002 (= ?x5085 ?x8726)))
 (or $x4002 $x7453)))))))
 ))
 (let ((?x63 (sc_t 0)))
 (let ((?x72 (sc_s 0)))
 (let (($x73 (= ?x72 ?x63)))
 (let (($x7275 (= $x3723 (or (exc_halt_t 3) (not (bvsle (_ bv0 6) (bvadd (_ bv62 6) (sc_t 3))))))))
 (let (($x11836 (forall ((w (_ BitVec 256)) )(let ((?x8313 (storage_t x_0 x_1 x_2 3 w)))
 (let ((?x6850 (storage_t x_0 x_1 x_2 4 w)))
 (= ?x6850 ?x8313))))
 ))
 (let (($x11595 (forall ((n (_ BitVec 6)) )(let ((?x3023 (stack_t x_0 x_1 x_2 3 n)))
 (let ((?x11072 (stack_t x_0 x_1 x_2 4 n)))
 (or (bvsle (bvadd (_ bv62 6) (sc_t 3)) n) (= ?x11072 ?x3023)))))
 ))
 (let (($x7908 (= (used_gas_t x_0 x_1 x_2 4) (+ 3 (used_gas_t x_0 x_1 x_2 3)))))
 (let ((?x6438 (sc_t 3)))
 (let ((?x9822 (bvadd (_ bv63 6) ?x6438)))
 (let ((?x4005 (stack_t x_0 x_1 x_2 3 ?x9822)))
 (let (($x10523 (= (stack_t x_0 x_1 x_2 4 (bvadd (_ bv63 6) ?x1098)) (bvadd ?x4005 (stack_t x_0 x_1 x_2 3 (bvadd (_ bv62 6) ?x6438))))))
 (let (($x5252 (exc_halt_t 2)))
 (let (($x10308 (or (not (bvsle (_ bv0 6) (bvadd (_ bv60 6) (sc_t 2)))) $x5252 (not (= ((_ extract 6 6) (bvadd (_ bv1 7) (concat (_ bv0 1) (sc_t 2)))) (_ bv0 1))))))
 (let (($x6783 (exc_halt_t 3)))
 (let (($x5139 (forall ((w (_ BitVec 256)) )(let ((?x2824 (storage_t x_0 x_1 x_2 2 w)))
 (let ((?x8313 (storage_t x_0 x_1 x_2 3 w)))
 (= ?x8313 ?x2824))))
 ))
 (let (($x6138 (forall ((n (_ BitVec 6)) )(let ((?x9505 (stack_t x_0 x_1 x_2 2 n)))
 (let ((?x3023 (stack_t x_0 x_1 x_2 3 n)))
 (or (bvsle (bvadd (_ bv60 6) (sc_t 2)) n) (= ?x3023 ?x9505)))))
 ))
 (let ((?x11365 (used_gas_t x_0 x_1 x_2 3)))
 (let ((?x2714 (sc_t 2)))
 (let ((?x408 (bvadd (_ bv63 6) ?x2714)))
 (let ((?x2471 (stack_t x_0 x_1 x_2 2 ?x408)))
 (let (($x7332 (= (stack_t x_0 x_1 x_2 3 (bvadd (_ bv62 6) ?x2714)) (stack_t x_0 x_1 x_2 2 (bvadd (_ bv62 6) ?x2714)))))
 (let (($x142 (= (stack_t x_0 x_1 x_2 3 (bvadd (_ bv61 6) ?x2714)) (stack_t x_0 x_1 x_2 2 (bvadd (_ bv61 6) ?x2714)))))
 (let ((?x10086 (bvadd (_ bv60 6) ?x2714)))
 (let ((?x3601 (stack_t x_0 x_1 x_2 2 ?x10086)))
 (let (($x3508 (exc_halt_t 1)))
 (let (($x3191 (or (not (= ((_ extract 6 6) (bvadd (_ bv1 7) (concat (_ bv0 1) (sc_t 1)))) (_ bv0 1))) $x3508 (not (bvsle (_ bv0 6) (bvadd (_ bv62 6) (sc_t 1)))))))
 (let (($x6874 (forall ((w (_ BitVec 256)) )(let ((?x8697 (storage_t x_0 x_1 x_2 1 w)))
 (let ((?x2824 (storage_t x_0 x_1 x_2 2 w)))
 (= ?x2824 ?x8697))))
 ))
 (let (($x1111 (forall ((n (_ BitVec 6)) )(let ((?x5288 (stack_t x_0 x_1 x_2 1 n)))
 (let ((?x9505 (stack_t x_0 x_1 x_2 2 n)))
 (or (bvsle (bvadd (_ bv62 6) (sc_t 1)) n) (= ?x9505 ?x5288)))))
 ))
 (let ((?x6978 (used_gas_t x_0 x_1 x_2 2)))
 (let ((?x8347 (sc_t 1)))
 (let ((?x5756 (bvadd (_ bv63 6) ?x8347)))
 (let ((?x11125 (stack_t x_0 x_1 x_2 1 ?x5756)))
 (let ((?x256 (bvadd (_ bv62 6) ?x8347)))
 (let ((?x763 (stack_t x_0 x_1 x_2 1 ?x256)))
 (let (($x3118 (not (= ((_ extract 6 6) (bvadd (_ bv1 7) (concat (_ bv0 1) ?x63))) (_ bv0 1)))))
 (let (($x9201 (forall ((w (_ BitVec 256)) )(let ((?x9279 (storage_t x_0 x_1 x_2 0 w)))
 (let ((?x8697 (storage_t x_0 x_1 x_2 1 w)))
 (= ?x8697 ?x9279))))
 ))
 (let (($x6797 (forall ((n (_ BitVec 6)) )(let ((?x8726 (stack_t x_0 x_1 x_2 0 n)))
 (let ((?x5288 (stack_t x_0 x_1 x_2 1 n)))
 (or (bvsle (bvadd (_ bv61 6) (sc_t 0)) n) (= ?x5288 ?x8726)))))
 ))
 (let (($x6213 (= ?x8347 (bvadd (_ bv1 6) ?x63))))
 (let (($x5201 (= (stack_t x_0 x_1 x_2 1 (bvadd (_ bv63 6) ?x63)) (stack_t x_0 x_1 x_2 0 (bvadd (_ bv63 6) ?x63)))))
 (let (($x5282 (= (stack_t x_0 x_1 x_2 1 (bvadd (_ bv62 6) ?x63)) (stack_t x_0 x_1 x_2 0 (bvadd (_ bv62 6) ?x63)))))
 (let ((?x6357 (bvadd (_ bv61 6) ?x63)))
 (let ((?x532 (stack_t x_0 x_1 x_2 0 ?x6357)))
 (let (($x5022 (= $x11317 (or (exc_halt_s 4) (not (bvsle (_ bv0 6) (bvadd (_ bv62 6) (sc_s 4))))))))
 (let (($x3484 (forall ((w (_ BitVec 256)) )(let ((?x7572 (storage_s x_0 x_1 x_2 4 w)))
 (let ((?x8139 (storage_s x_0 x_1 x_2 5 w)))
 (= ?x8139 ?x7572))))
 ))
 (let (($x10529 (forall ((n (_ BitVec 6)) )(let ((?x6946 (stack_s x_0 x_1 x_2 4 n)))
 (let ((?x10045 (stack_s x_0 x_1 x_2 5 n)))
 (or (= ?x10045 ?x6946) (bvsle (bvadd (_ bv62 6) (sc_s 4)) n)))))
 ))
 (let (($x4257 (= (used_gas_s x_0 x_1 x_2 5) (+ 3 (used_gas_s x_0 x_1 x_2 4)))))
 (let ((?x4305 (sc_s 4)))
 (let ((?x805 (bvadd (_ bv63 6) ?x4305)))
 (let ((?x10232 (stack_s x_0 x_1 x_2 4 ?x805)))
 (let (($x1309 (= (stack_s x_0 x_1 x_2 5 (bvadd (_ bv63 6) ?x4319)) (stack_s x_0 x_1 x_2 4 (bvadd (_ bv62 6) ?x4305)))))
 (let (($x292 (exc_halt_s 3)))
 (let (($x20 (or $x292 (not (bvsle (_ bv0 6) (bvadd (_ bv60 6) (sc_s 3)))) (not (= ((_ extract 6 6) (bvadd (_ bv1 7) (concat (_ bv0 1) (sc_s 3)))) (_ bv0 1))))))
 (let (($x7172 (exc_halt_s 4)))
 (let (($x5764 (forall ((w (_ BitVec 256)) )(let ((?x3287 (storage_s x_0 x_1 x_2 3 w)))
 (let ((?x7572 (storage_s x_0 x_1 x_2 4 w)))
 (= ?x7572 ?x3287))))
 ))
 (let (($x8707 (forall ((n (_ BitVec 6)) )(let ((?x1532 (stack_s x_0 x_1 x_2 3 n)))
 (let ((?x6946 (stack_s x_0 x_1 x_2 4 n)))
 (or (bvsle (bvadd (_ bv60 6) (sc_s 3)) n) (= ?x6946 ?x1532)))))
 ))
 (let ((?x3363 (used_gas_s x_0 x_1 x_2 4)))
 (let ((?x275 (sc_s 3)))
 (let ((?x9812 (bvadd (_ bv63 6) ?x275)))
 (let ((?x1368 (stack_s x_0 x_1 x_2 3 ?x9812)))
 (let (($x322 (= (stack_s x_0 x_1 x_2 4 (bvadd (_ bv62 6) ?x275)) (stack_s x_0 x_1 x_2 3 (bvadd (_ bv62 6) ?x275)))))
 (let (($x6618 (= (stack_s x_0 x_1 x_2 4 (bvadd (_ bv61 6) ?x275)) (stack_s x_0 x_1 x_2 3 (bvadd (_ bv61 6) ?x275)))))
 (let ((?x6018 (bvadd (_ bv60 6) ?x275)))
 (let ((?x1002 (stack_s x_0 x_1 x_2 3 ?x6018)))
 (let (($x6649 (= $x292 (or (exc_halt_s 2) (not (bvsle (_ bv0 6) (bvadd (_ bv62 6) (sc_s 2))))))))
 (let (($x2970 (forall ((w (_ BitVec 256)) )(let ((?x762 (storage_s x_0 x_1 x_2 2 w)))
 (let ((?x3287 (storage_s x_0 x_1 x_2 3 w)))
 (= ?x3287 ?x762))))
 ))
 (let (($x3654 (forall ((n (_ BitVec 6)) )(let ((?x3302 (stack_s x_0 x_1 x_2 2 n)))
 (let ((?x1532 (stack_s x_0 x_1 x_2 3 n)))
 (or (bvsle (bvadd (_ bv62 6) (sc_s 2)) n) (= ?x1532 ?x3302)))))
 ))
 (let ((?x6900 (used_gas_s x_0 x_1 x_2 3)))
 (let ((?x218 (sc_s 2)))
 (let ((?x7855 (bvadd (_ bv63 6) ?x218)))
 (let ((?x2152 (stack_s x_0 x_1 x_2 2 ?x7855)))
 (let (($x6651 (= ?x1368 (bvadd ?x2152 (stack_s x_0 x_1 x_2 2 (bvadd (_ bv62 6) ?x218))))))
 (let (($x189 (exc_halt_s 1)))
 (let (($x11367 (or $x189 (not (bvsle (_ bv0 6) (bvadd (_ bv61 6) (sc_s 1)))) (not (= ((_ extract 6 6) (bvadd (_ bv1 7) (concat (_ bv0 1) (sc_s 1)))) (_ bv0 1))))))
 (let (($x247 (exc_halt_s 2)))
 (let (($x510 (forall ((w (_ BitVec 256)) )(let ((?x4266 (storage_s x_0 x_1 x_2 1 w)))
 (let ((?x762 (storage_s x_0 x_1 x_2 2 w)))
 (= ?x762 ?x4266))))
 ))
 (let (($x9622 (forall ((n (_ BitVec 6)) )(let ((?x1788 (stack_s x_0 x_1 x_2 1 n)))
 (let ((?x3302 (stack_s x_0 x_1 x_2 2 n)))
 (or (= ?x3302 ?x1788) (bvsle (bvadd (_ bv61 6) (sc_s 1)) n)))))
 ))
 (let ((?x5946 (used_gas_s x_0 x_1 x_2 2)))
 (let ((?x154 (sc_s 1)))
 (let ((?x2245 (bvadd (_ bv63 6) ?x154)))
 (let ((?x9296 (stack_s x_0 x_1 x_2 1 ?x2245)))
 (let (($x8173 (= (stack_s x_0 x_1 x_2 2 (bvadd (_ bv62 6) ?x154)) (stack_s x_0 x_1 x_2 1 (bvadd (_ bv62 6) ?x154)))))
 (let ((?x164 (bvadd (_ bv61 6) ?x154)))
 (let ((?x11335 (stack_s x_0 x_1 x_2 1 ?x164)))
 (let (($x4365 (or $x57 (not (bvsle (_ bv0 6) (bvadd (_ bv63 6) ?x72))) (not (= ((_ extract 6 6) (bvadd (_ bv1 7) (concat (_ bv0 1) ?x72))) (_ bv0 1))))))
 (let (($x7442 (forall ((w (_ BitVec 256)) )(let ((?x5100 (storage_s x_0 x_1 x_2 0 w)))
 (let ((?x4266 (storage_s x_0 x_1 x_2 1 w)))
 (= ?x4266 ?x5100))))
 ))
 (let (($x4632 (forall ((n (_ BitVec 6)) )(let ((?x5085 (stack_s x_0 x_1 x_2 0 n)))
 (let ((?x1788 (stack_s x_0 x_1 x_2 1 n)))
 (or (bvsle (bvadd (_ bv63 6) (sc_s 0)) n) (= ?x1788 ?x5085)))))
 ))
 (let ((?x190 (bvadd (_ bv63 6) ?x72)))
 (let ((?x6977 (stack_s x_0 x_1 x_2 0 ?x190)))
 (let (($x10256 (forall ((w (_ BitVec 256)) )(let ((?x5100 (storage_s x_0 x_1 x_2 0 w)))
 (= ?x5100 (_ bv0 256))))
 ))
 (let (($x3010 (= ?x5472 0)))
 (let (($x6901 (not $x57)))
 (let (($x5967 (= (stack_s x_0 x_1 x_2 0 (_ bv2 6)) x_2)))
 (let (($x5070 (= (stack_s x_0 x_1 x_2 0 (_ bv1 6)) x_1)))
 (let (($x2401 (= (stack_s x_0 x_1 x_2 0 (_ bv0 6)) x_0)))
 (let (($x5315 (= ?x72 (_ bv3 6))))
 (and $x5315 $x2401 $x5070 $x5967 $x6901 $x3010 $x10256 (= ?x9296 ?x6977) (= (stack_s x_0 x_1 x_2 1 ?x190) ?x6977) (= (used_gas_s x_0 x_1 x_2 1) (+ 3 ?x5472)) (= ?x154 (bvadd (_ bv1 6) ?x72)) $x4632 $x7442 (= $x189 $x4365) (= ?x2152 ?x11335) (= (stack_s x_0 x_1 x_2 2 ?x164) ?x11335) $x8173 (= (stack_s x_0 x_1 x_2 2 ?x2245) ?x9296) (= ?x5946 (+ 3 (used_gas_s x_0 x_1 x_2 1))) (= ?x218 (bvadd (_ bv1 6) ?x154)) $x9622 $x510 (= $x247 $x11367) $x6651 (= ?x6900 (+ 3 ?x5946)) (= ?x275 ?x7855) $x3654 $x2970 $x6649 (= ?x10232 ?x1002) (= (stack_s x_0 x_1 x_2 4 ?x6018) ?x1002) $x6618 $x322 (= (stack_s x_0 x_1 x_2 4 ?x9812) ?x1368) (= ?x3363 (+ 3 ?x6900)) (= ?x4305 (bvadd (_ bv1 6) ?x275)) $x8707 $x5764 (= $x7172 $x20) $x1309 (= (stack_s x_0 x_1 x_2 5 (bvadd (_ bv62 6) ?x4319)) ?x10232) $x4257 (= ?x4319 ?x4305) $x10529 $x3484 $x5022 (= ?x11125 ?x532) (= (stack_t x_0 x_1 x_2 1 ?x6357) ?x532) $x5282 $x5201 (= (used_gas_t x_0 x_1 x_2 1) (+ 3 ?x3007)) $x6213 $x6797 $x9201 (= $x3508 (or $x56 $x3118 (not (bvsle (_ bv0 6) ?x6357)))) (= ?x2471 ?x763) (= (stack_t x_0 x_1 x_2 2 ?x256) ?x763) (= (stack_t x_0 x_1 x_2 2 ?x5756) ?x11125) (= ?x6978 (+ 3 (used_gas_t x_0 x_1 x_2 1))) (= ?x2714 (bvadd (_ bv1 6) ?x8347)) $x1111 $x6874 (= $x5252 $x3191) (= ?x4005 ?x3601) (= (stack_t x_0 x_1 x_2 3 ?x10086) ?x3601) $x142 $x7332 (= (stack_t x_0 x_1 x_2 3 ?x408) ?x2471) (= ?x11365 (+ 3 ?x6978)) (= ?x6438 (bvadd (_ bv1 6) ?x2714)) $x6138 $x5139 (= $x6783 $x10308) $x10523 $x7908 (= ?x1098 ?x9822) $x11595 $x11836 $x7275 $x73 $x1355 $x58 $x6975 $x846 (not (and $x11451 $x10343 $x7362 $x8179)))))))))))))))))))))))))))))))))))))))))))))))))))))))))))))))))))))))))))))))))))))))))))))))))))))))))))))))))))
 )
(check-sat)
(get-proof)
